unsat
(:max-memory         18.42
 :memory             18.33
 :nlsat-arith-var    3
 :nlsat-atoms        15
 :nlsat-bool-var     1
 :nlsat-clauses      8
 :nlsat-conflicts    6
 :nlsat-propagations 26
 :nlsat-stages       6
 :num-allocs         51165
 :rlimit-count       1986
 :time               0.00
 :total-time         0.02)
